PatchBench/BenchmarksExist/FFmpeg/CWE-189-Numeric-Errors/CVE_2013_0855_3920d1387834e2bc334aff9f518f4beb24e470bd/allocate_buffers_SnippetExist32_2_Int.smt2
(set-info :status unknown)
(set-logic QF_LIA)

(declare-fun rdi () Int)

(declare-fun x48 () Bool)
(declare-fun x49 () Bool)

(assert (= x48 (>= rdi 536870912))) ; Checking if bits 31-29 of rdi are 0
(assert (= x49 (<= rdi 1073741824)))

(assert (and x48 x49))


(check-sat)
